\ENCODING=ISO-8859-1
\Problem name: IloCplex

Minimize
 obj: x1 + 3 x3 + 6 x4 + x5 + 3 x6 + 8 x7 + 8 x8 + 3 x9 + 10 x10 + 5 x11
      + 2 x14 + 10 x15 + 2 x16 + x17 + 8 x18 + 5 x19 + 6 x20 + 3 x21 + 3 x22
      + 10 x23 + 4 x24 + 2 x25 + 8 x26 + 8 x27 + 9 x28 + x29 + 8 x30 + 3 x31
      + 6 x32 + 10 x33 + 2 x34 + 10 x35 + 10 x36 + 2 x37 + 6 x38 + 9 x39
      + 2 x40 + 6 x42 + 3 x43 + 5 x44 + 3 x45 + 7 x46 + 8 x47 + 3 x48 + 4 x49
      + x51 + 8 x52 + 8 x53 + 5 x54 + 4 x55 + 9 x56 + 6 x58 + 2 x59 + 5 x60
      + 8 x61 + 2 x62 + 4 x63 + 3 x64 + 5 x66 + x67 + 2 x68 + 6 x69 + 6 x70
      + 7 x71 + 3 x72 + 4 x73 + 6 x74 + 7 x75 + 3 x76 + 3 x77 + 9 x78 + 8 x79
      + 5 x80 + 7 x82 + 6 x83 + 7 x84 + 4 x86 + 9 x87 + 7 x88 + 2 x90 + 9 x91
      + x92 + 8 x93 + 4 x94 + 9 x95 + 4 x96 + 6 x97 + 4 x98 + 10 x99 + 3 x101
      + 5 x102 + 6 x103 + 7 x104 + 5 x105 + 4 x106 + 2 x107 + 5 x108 + 2 x109
      + 9 x110 + 8 x111 + x112 + 7 x113 + 3 x114 + 3 x115 + 7 x116 + 6 x117
      + 3 x118 + 9 x119 + 7 x120 + 3 x122 + 5 x123 + 8 x124 + 2 x125 + 2 x126
      + 9 x127 + x128 + 7 x129 + 4 x130 + 8 x131 + 2 x132 + 7 x133 + 10 x134
      + 5 x136 + 4 x137 + x138 + 10 x139 + 3 x140 + 9 x141 + 6 x142 + x144
      + x145 + 6 x146 + 10 x147 + 8 x148 + 7 x149 + 10 x150 + 2 x151 + 9 x152
      + 7 x153 + 9 x154 + 3 x155 + 10 x158 + 5 x159 + 7 x160 + 2 x161 + 7 x162
      + x163 + x164 + 6 x165 + 6 x166 + 10 x167 + 7 x169 + 10 x170 + 2 x171
      + 5 x172 + 5 x173 + 5 x175 + x176 + 2 x177 + 4 x178 + 6 x179 + 3 x180
      + 7 x181 + 5 x182 + x183 + 7 x184 + 7 x185 + 7 x186 + 7 x187 + 3 x188
      + 8 x189 + 9 x190 + 9 x191 + 4 x192 + 10 x193 + 4 x194 + 8 x195 + x196
      + 9 x197 + 2 x198 + 9 x199 + 7 x200 + 10 x201 + 10 x202 + 2 x203 + 9 x204
      + 7 x205 + 10 x206 + x207 + 2 x208 + 5 x209 + 9 x210 + 5 x211 + 8 x212
      + 9 x213 + 5 x214 + 8 x215 + 8 x216 + 4 x217 + 2 x219 + 5 x220 + 6 x221
      + x222 + 8 x223 + 3 x224 + 4 x225 + 8 x226 + 5 x227 + 6 x228 + 3 x229
      + 8 x230 + 7 x231 + 4 x232 + 9 x233 + 10 x234 + 8 x235 + 3 x236 + 4 x237
      + 10 x238 + 8 x239 + x240 + 10 x241 + 10 x242 + 6 x243 + 5 x245 + 6 x246
      + 5 x247 + 9 x248 + 4 x249 + x250 + x251 + 10 x252 + 9 x253 + 2 x255
      + 9 x256 + 7 x257 + 7 x258 + x259 + 2 x260 + 5 x261 + 2 x262 + 3 x263
      + 6 x264 + 9 x265 + 2 x266 + 5 x267 + 4 x269 + 4 x271 + 4 x272 + 10 x274
      + 6 x275 + x276 + 10 x277 + 7 x278 + 8 x280 + 10 x281 + 9 x282 + 2 x283
      + 9 x284 + 9 x285 + 10 x286 + 4 x288 + 4 x290 + 4 x291 + 4 x293 + 8 x294
      + 6 x295 + 3 x297 + 5 x298 + 10 x299 + 4 x300 + x301 + 7 x302 + 2 x303
      + x304 + 4 x305 + 9 x306 + 3 x307 + 5 x308 + x309 + 3 x310 + 4 x311
      + 8 x312 + 5 x313 + 8 x314 + x315 + 6 x317 + 10 x318 + 6 x319 + x320
      + 6 x321 + 9 x322 + x323 + 2 x324 + 10 x325 + 5 x326 + 7 x327 + x328
      + 3 x329 + 6 x330 + 6 x331
Subject To
 c1:   x2 + x32 + x62 + x92 + x122 + x152 + x182 + x212 + x242 + x272 + x302
       >= 1
 c2:   x3 + x33 + x63 + x93 + x123 + x153 + x183 + x213 + x243 + x273 + x303
       >= 1
 c3:   x4 + x34 + x64 + x94 + x124 + x154 + x184 + x214 + x244 + x274 + x304
       >= 1
 c4:   x5 + x35 + x65 + x95 + x125 + x155 + x185 + x215 + x245 + x275 + x305
       >= 1
 c5:   x6 + x36 + x66 + x96 + x126 + x156 + x186 + x216 + x246 + x276 + x306
       >= 1
 c6:   x7 + x37 + x67 + x97 + x127 + x157 + x187 + x217 + x247 + x277 + x307
       >= 1
 c7:   x8 + x38 + x68 + x98 + x128 + x158 + x188 + x218 + x248 + x278 + x308
       >= 1
 c8:   x9 + x39 + x69 + x99 + x129 + x159 + x189 + x219 + x249 + x279 + x309
       >= 1
 c9:   x10 + x40 + x70 + x100 + x130 + x160 + x190 + x220 + x250 + x280 + x310
       >= 1
 c10:  x11 + x41 + x71 + x101 + x131 + x161 + x191 + x221 + x251 + x281 + x311
       >= 1
 c11:  x12 + x42 + x72 + x102 + x132 + x162 + x192 + x222 + x252 + x282 + x312
       >= 1
 c12:  x13 + x43 + x73 + x103 + x133 + x163 + x193 + x223 + x253 + x283 + x313
       >= 1
 c13:  x14 + x44 + x74 + x104 + x134 + x164 + x194 + x224 + x254 + x284 + x314
       >= 1
 c14:  x15 + x45 + x75 + x105 + x135 + x165 + x195 + x225 + x255 + x285 + x315
       >= 1
 c15:  x16 + x46 + x76 + x106 + x136 + x166 + x196 + x226 + x256 + x286 + x316
       >= 1
 c16:  x17 + x47 + x77 + x107 + x137 + x167 + x197 + x227 + x257 + x287 + x317
       >= 1
 c17:  x18 + x48 + x78 + x108 + x138 + x168 + x198 + x228 + x258 + x288 + x318
       >= 1
 c18:  x19 + x49 + x79 + x109 + x139 + x169 + x199 + x229 + x259 + x289 + x319
       >= 1
 c19:  x20 + x50 + x80 + x110 + x140 + x170 + x200 + x230 + x260 + x290 + x320
       >= 1
 c20:  x21 + x51 + x81 + x111 + x141 + x171 + x201 + x231 + x261 + x291 + x321
       >= 1
 c21:  x22 + x52 + x82 + x112 + x142 + x172 + x202 + x232 + x262 + x292 + x322
       >= 1
 c22:  x23 + x53 + x83 + x113 + x143 + x173 + x203 + x233 + x263 + x293 + x323
       >= 1
 c23:  x24 + x54 + x84 + x114 + x144 + x174 + x204 + x234 + x264 + x294 + x324
       >= 1
 c24:  x25 + x55 + x85 + x115 + x145 + x175 + x205 + x235 + x265 + x295 + x325
       >= 1
 c25:  x26 + x56 + x86 + x116 + x146 + x176 + x206 + x236 + x266 + x296 + x326
       >= 1
 c26:  x27 + x57 + x87 + x117 + x147 + x177 + x207 + x237 + x267 + x297 + x327
       >= 1
 c27:  x28 + x58 + x88 + x118 + x148 + x178 + x208 + x238 + x268 + x298 + x328
       >= 1
 c28:  x29 + x59 + x89 + x119 + x149 + x179 + x209 + x239 + x269 + x299 + x329
       >= 1
 c29:  x30 + x60 + x90 + x120 + x150 + x180 + x210 + x240 + x270 + x300 + x330
       >= 1
 c30:  x31 + x61 + x91 + x121 + x151 + x181 + x211 + x241 + x271 + x301 + x331
       >= 1
 c31:  - x332 - x333 - x334 - x335 - x336 - x337 >= -1
 c32:  - x2 + x332 + x335 + x336 >= 0
 c33:  - x3 + x332 + x335 + x336 >= 0
 c34:  - x4 + x332 + x335 + x336 >= 0
 c35:  - x5 + x332 + x335 + x336 >= 0
 c36:  - x6 + x332 + x335 + x336 >= 0
 c37:  - x7 + x332 + x335 + x336 >= 0
 c38:  - x8 + x332 + x335 + x336 >= 0
 c39:  - x9 + x332 + x335 + x336 >= 0
 c40:  - x10 + x332 + x335 + x336 >= 0
 c41:  - x11 + x332 + x335 + x336 >= 0
 c42:  - x12 + x332 + x335 + x336 >= 0
 c43:  - x13 + x332 + x335 + x336 >= 0
 c44:  - x14 + x332 + x335 + x336 >= 0
 c45:  - x15 + x332 + x335 + x336 >= 0
 c46:  - x16 + x332 + x335 + x336 >= 0
 c47:  - x17 + x332 + x335 + x336 >= 0
 c48:  - x18 + x332 + x335 + x336 >= 0
 c49:  - x19 + x332 + x335 + x336 >= 0
 c50:  - x20 + x332 + x335 + x336 >= 0
 c51:  - x21 + x332 + x335 + x336 >= 0
 c52:  - x22 + x332 + x335 + x336 >= 0
 c53:  - x23 + x332 + x335 + x336 >= 0
 c54:  - x24 + x332 + x335 + x336 >= 0
 c55:  - x25 + x332 + x335 + x336 >= 0
 c56:  - x26 + x332 + x335 + x336 >= 0
 c57:  - x27 + x332 + x335 + x336 >= 0
 c58:  - x28 + x332 + x335 + x336 >= 0
 c59:  - x29 + x332 + x335 + x336 >= 0
 c60:  - x30 + x332 + x335 + x336 >= 0
 c61:  - x31 + x332 + x335 + x336 >= 0
 c62:  - x32 + x333 + x334 + x335 + x337 >= 0
 c63:  - x33 + x333 + x334 + x335 + x337 >= 0
 c64:  - x34 + x333 + x334 + x335 + x337 >= 0
 c65:  - x35 + x333 + x334 + x335 + x337 >= 0
 c66:  - x36 + x333 + x334 + x335 + x337 >= 0
 c67:  - x37 + x333 + x334 + x335 + x337 >= 0
 c68:  - x38 + x333 + x334 + x335 + x337 >= 0
 c69:  - x39 + x333 + x334 + x335 + x337 >= 0
 c70:  - x40 + x333 + x334 + x335 + x337 >= 0
 c71:  - x41 + x333 + x334 + x335 + x337 >= 0
 c72:  - x42 + x333 + x334 + x335 + x337 >= 0
 c73:  - x43 + x333 + x334 + x335 + x337 >= 0
 c74:  - x44 + x333 + x334 + x335 + x337 >= 0
 c75:  - x45 + x333 + x334 + x335 + x337 >= 0
 c76:  - x46 + x333 + x334 + x335 + x337 >= 0
 c77:  - x47 + x333 + x334 + x335 + x337 >= 0
 c78:  - x48 + x333 + x334 + x335 + x337 >= 0
 c79:  - x49 + x333 + x334 + x335 + x337 >= 0
 c80:  - x50 + x333 + x334 + x335 + x337 >= 0
 c81:  - x51 + x333 + x334 + x335 + x337 >= 0
 c82:  - x52 + x333 + x334 + x335 + x337 >= 0
 c83:  - x53 + x333 + x334 + x335 + x337 >= 0
 c84:  - x54 + x333 + x334 + x335 + x337 >= 0
 c85:  - x55 + x333 + x334 + x335 + x337 >= 0
 c86:  - x56 + x333 + x334 + x335 + x337 >= 0
 c87:  - x57 + x333 + x334 + x335 + x337 >= 0
 c88:  - x58 + x333 + x334 + x335 + x337 >= 0
 c89:  - x59 + x333 + x334 + x335 + x337 >= 0
 c90:  - x60 + x333 + x334 + x335 + x337 >= 0
 c91:  - x61 + x333 + x334 + x335 + x337 >= 0
 c92:  - x62 + x333 + x334 + x335 >= 0
 c93:  - x63 + x333 + x334 + x335 >= 0
 c94:  - x64 + x333 + x334 + x335 >= 0
 c95:  - x65 + x333 + x334 + x335 >= 0
 c96:  - x66 + x333 + x334 + x335 >= 0
 c97:  - x67 + x333 + x334 + x335 >= 0
 c98:  - x68 + x333 + x334 + x335 >= 0
 c99:  - x69 + x333 + x334 + x335 >= 0
 c100: - x70 + x333 + x334 + x335 >= 0
 c101: - x71 + x333 + x334 + x335 >= 0
 c102: - x72 + x333 + x334 + x335 >= 0
 c103: - x73 + x333 + x334 + x335 >= 0
 c104: - x74 + x333 + x334 + x335 >= 0
 c105: - x75 + x333 + x334 + x335 >= 0
 c106: - x76 + x333 + x334 + x335 >= 0
 c107: - x77 + x333 + x334 + x335 >= 0
 c108: - x78 + x333 + x334 + x335 >= 0
 c109: - x79 + x333 + x334 + x335 >= 0
 c110: - x80 + x333 + x334 + x335 >= 0
 c111: - x81 + x333 + x334 + x335 >= 0
 c112: - x82 + x333 + x334 + x335 >= 0
 c113: - x83 + x333 + x334 + x335 >= 0
 c114: - x84 + x333 + x334 + x335 >= 0
 c115: - x85 + x333 + x334 + x335 >= 0
 c116: - x86 + x333 + x334 + x335 >= 0
 c117: - x87 + x333 + x334 + x335 >= 0
 c118: - x88 + x333 + x334 + x335 >= 0
 c119: - x89 + x333 + x334 + x335 >= 0
 c120: - x90 + x333 + x334 + x335 >= 0
 c121: - x91 + x333 + x334 + x335 >= 0
 c122: - x92 + x333 >= 0
 c123: - x93 + x333 >= 0
 c124: - x94 + x333 >= 0
 c125: - x95 + x333 >= 0
 c126: - x96 + x333 >= 0
 c127: - x97 + x333 >= 0
 c128: - x98 + x333 >= 0
 c129: - x99 + x333 >= 0
 c130: - x100 + x333 >= 0
 c131: - x101 + x333 >= 0
 c132: - x102 + x333 >= 0
 c133: - x103 + x333 >= 0
 c134: - x104 + x333 >= 0
 c135: - x105 + x333 >= 0
 c136: - x106 + x333 >= 0
 c137: - x107 + x333 >= 0
 c138: - x108 + x333 >= 0
 c139: - x109 + x333 >= 0
 c140: - x110 + x333 >= 0
 c141: - x111 + x333 >= 0
 c142: - x112 + x333 >= 0
 c143: - x113 + x333 >= 0
 c144: - x114 + x333 >= 0
 c145: - x115 + x333 >= 0
 c146: - x116 + x333 >= 0
 c147: - x117 + x333 >= 0
 c148: - x118 + x333 >= 0
 c149: - x119 + x333 >= 0
 c150: - x120 + x333 >= 0
 c151: - x121 + x333 >= 0
 c152: - x122 + x332 + x336 + x337 >= 0
 c153: - x123 + x332 + x336 + x337 >= 0
 c154: - x124 + x332 + x336 + x337 >= 0
 c155: - x125 + x332 + x336 + x337 >= 0
 c156: - x126 + x332 + x336 + x337 >= 0
 c157: - x127 + x332 + x336 + x337 >= 0
 c158: - x128 + x332 + x336 + x337 >= 0
 c159: - x129 + x332 + x336 + x337 >= 0
 c160: - x130 + x332 + x336 + x337 >= 0
 c161: - x131 + x332 + x336 + x337 >= 0
 c162: - x132 + x332 + x336 + x337 >= 0
 c163: - x133 + x332 + x336 + x337 >= 0
 c164: - x134 + x332 + x336 + x337 >= 0
 c165: - x135 + x332 + x336 + x337 >= 0
 c166: - x136 + x332 + x336 + x337 >= 0
 c167: - x137 + x332 + x336 + x337 >= 0
 c168: - x138 + x332 + x336 + x337 >= 0
 c169: - x139 + x332 + x336 + x337 >= 0
 c170: - x140 + x332 + x336 + x337 >= 0
 c171: - x141 + x332 + x336 + x337 >= 0
 c172: - x142 + x332 + x336 + x337 >= 0
 c173: - x143 + x332 + x336 + x337 >= 0
 c174: - x144 + x332 + x336 + x337 >= 0
 c175: - x145 + x332 + x336 + x337 >= 0
 c176: - x146 + x332 + x336 + x337 >= 0
 c177: - x147 + x332 + x336 + x337 >= 0
 c178: - x148 + x332 + x336 + x337 >= 0
 c179: - x149 + x332 + x336 + x337 >= 0
 c180: - x150 + x332 + x336 + x337 >= 0
 c181: - x151 + x332 + x336 + x337 >= 0
 c182: - x152 + x333 + x334 + x336 >= 0
 c183: - x153 + x333 + x334 + x336 >= 0
 c184: - x154 + x333 + x334 + x336 >= 0
 c185: - x155 + x333 + x334 + x336 >= 0
 c186: - x156 + x333 + x334 + x336 >= 0
 c187: - x157 + x333 + x334 + x336 >= 0
 c188: - x158 + x333 + x334 + x336 >= 0
 c189: - x159 + x333 + x334 + x336 >= 0
 c190: - x160 + x333 + x334 + x336 >= 0
 c191: - x161 + x333 + x334 + x336 >= 0
 c192: - x162 + x333 + x334 + x336 >= 0
 c193: - x163 + x333 + x334 + x336 >= 0
 c194: - x164 + x333 + x334 + x336 >= 0
 c195: - x165 + x333 + x334 + x336 >= 0
 c196: - x166 + x333 + x334 + x336 >= 0
 c197: - x167 + x333 + x334 + x336 >= 0
 c198: - x168 + x333 + x334 + x336 >= 0
 c199: - x169 + x333 + x334 + x336 >= 0
 c200: - x170 + x333 + x334 + x336 >= 0
 c201: - x171 + x333 + x334 + x336 >= 0
 c202: - x172 + x333 + x334 + x336 >= 0
 c203: - x173 + x333 + x334 + x336 >= 0
 c204: - x174 + x333 + x334 + x336 >= 0
 c205: - x175 + x333 + x334 + x336 >= 0
 c206: - x176 + x333 + x334 + x336 >= 0
 c207: - x177 + x333 + x334 + x336 >= 0
 c208: - x178 + x333 + x334 + x336 >= 0
 c209: - x179 + x333 + x334 + x336 >= 0
 c210: - x180 + x333 + x334 + x336 >= 0
 c211: - x181 + x333 + x334 + x336 >= 0
 c212: - x182 >= 0
 c213: - x183 >= 0
 c214: - x184 >= 0
 c215: - x185 >= 0
 c216: - x186 >= 0
 c217: - x187 >= 0
 c218: - x188 >= 0
 c219: - x189 >= 0
 c220: - x190 >= 0
 c221: - x191 >= 0
 c222: - x192 >= 0
 c223: - x193 >= 0
 c224: - x194 >= 0
 c225: - x195 >= 0
 c226: - x196 >= 0
 c227: - x197 >= 0
 c228: - x198 >= 0
 c229: - x199 >= 0
 c230: - x200 >= 0
 c231: - x201 >= 0
 c232: - x202 >= 0
 c233: - x203 >= 0
 c234: - x204 >= 0
 c235: - x205 >= 0
 c236: - x206 >= 0
 c237: - x207 >= 0
 c238: - x208 >= 0
 c239: - x209 >= 0
 c240: - x210 >= 0
 c241: - x211 >= 0
 c242: - x212 + x332 >= 0
 c243: - x213 + x332 >= 0
 c244: - x214 + x332 >= 0
 c245: - x215 + x332 >= 0
 c246: - x216 + x332 >= 0
 c247: - x217 + x332 >= 0
 c248: - x218 + x332 >= 0
 c249: - x219 + x332 >= 0
 c250: - x220 + x332 >= 0
 c251: - x221 + x332 >= 0
 c252: - x222 + x332 >= 0
 c253: - x223 + x332 >= 0
 c254: - x224 + x332 >= 0
 c255: - x225 + x332 >= 0
 c256: - x226 + x332 >= 0
 c257: - x227 + x332 >= 0
 c258: - x228 + x332 >= 0
 c259: - x229 + x332 >= 0
 c260: - x230 + x332 >= 0
 c261: - x231 + x332 >= 0
 c262: - x232 + x332 >= 0
 c263: - x233 + x332 >= 0
 c264: - x234 + x332 >= 0
 c265: - x235 + x332 >= 0
 c266: - x236 + x332 >= 0
 c267: - x237 + x332 >= 0
 c268: - x238 + x332 >= 0
 c269: - x239 + x332 >= 0
 c270: - x240 + x332 >= 0
 c271: - x241 + x332 >= 0
 c272: - x242 + x333 + x334 + x335 + x336 + x337 >= 0
 c273: - x243 + x333 + x334 + x335 + x336 + x337 >= 0
 c274: - x244 + x333 + x334 + x335 + x336 + x337 >= 0
 c275: - x245 + x333 + x334 + x335 + x336 + x337 >= 0
 c276: - x246 + x333 + x334 + x335 + x336 + x337 >= 0
 c277: - x247 + x333 + x334 + x335 + x336 + x337 >= 0
 c278: - x248 + x333 + x334 + x335 + x336 + x337 >= 0
 c279: - x249 + x333 + x334 + x335 + x336 + x337 >= 0
 c280: - x250 + x333 + x334 + x335 + x336 + x337 >= 0
 c281: - x251 + x333 + x334 + x335 + x336 + x337 >= 0
 c282: - x252 + x333 + x334 + x335 + x336 + x337 >= 0
 c283: - x253 + x333 + x334 + x335 + x336 + x337 >= 0
 c284: - x254 + x333 + x334 + x335 + x336 + x337 >= 0
 c285: - x255 + x333 + x334 + x335 + x336 + x337 >= 0
 c286: - x256 + x333 + x334 + x335 + x336 + x337 >= 0
 c287: - x257 + x333 + x334 + x335 + x336 + x337 >= 0
 c288: - x258 + x333 + x334 + x335 + x336 + x337 >= 0
 c289: - x259 + x333 + x334 + x335 + x336 + x337 >= 0
 c290: - x260 + x333 + x334 + x335 + x336 + x337 >= 0
 c291: - x261 + x333 + x334 + x335 + x336 + x337 >= 0
 c292: - x262 + x333 + x334 + x335 + x336 + x337 >= 0
 c293: - x263 + x333 + x334 + x335 + x336 + x337 >= 0
 c294: - x264 + x333 + x334 + x335 + x336 + x337 >= 0
 c295: - x265 + x333 + x334 + x335 + x336 + x337 >= 0
 c296: - x266 + x333 + x334 + x335 + x336 + x337 >= 0
 c297: - x267 + x333 + x334 + x335 + x336 + x337 >= 0
 c298: - x268 + x333 + x334 + x335 + x336 + x337 >= 0
 c299: - x269 + x333 + x334 + x335 + x336 + x337 >= 0
 c300: - x270 + x333 + x334 + x335 + x336 + x337 >= 0
 c301: - x271 + x333 + x334 + x335 + x336 + x337 >= 0
 c302: - x272 + x332 + x334 + x335 + x336 + x337 >= 0
 c303: - x273 + x332 + x334 + x335 + x336 + x337 >= 0
 c304: - x274 + x332 + x334 + x335 + x336 + x337 >= 0
 c305: - x275 + x332 + x334 + x335 + x336 + x337 >= 0
 c306: - x276 + x332 + x334 + x335 + x336 + x337 >= 0
 c307: - x277 + x332 + x334 + x335 + x336 + x337 >= 0
 c308: - x278 + x332 + x334 + x335 + x336 + x337 >= 0
 c309: - x279 + x332 + x334 + x335 + x336 + x337 >= 0
 c310: - x280 + x332 + x334 + x335 + x336 + x337 >= 0
 c311: - x281 + x332 + x334 + x335 + x336 + x337 >= 0
 c312: - x282 + x332 + x334 + x335 + x336 + x337 >= 0
 c313: - x283 + x332 + x334 + x335 + x336 + x337 >= 0
 c314: - x284 + x332 + x334 + x335 + x336 + x337 >= 0
 c315: - x285 + x332 + x334 + x335 + x336 + x337 >= 0
 c316: - x286 + x332 + x334 + x335 + x336 + x337 >= 0
 c317: - x287 + x332 + x334 + x335 + x336 + x337 >= 0
 c318: - x288 + x332 + x334 + x335 + x336 + x337 >= 0
 c319: - x289 + x332 + x334 + x335 + x336 + x337 >= 0
 c320: - x290 + x332 + x334 + x335 + x336 + x337 >= 0
 c321: - x291 + x332 + x334 + x335 + x336 + x337 >= 0
 c322: - x292 + x332 + x334 + x335 + x336 + x337 >= 0
 c323: - x293 + x332 + x334 + x335 + x336 + x337 >= 0
 c324: - x294 + x332 + x334 + x335 + x336 + x337 >= 0
 c325: - x295 + x332 + x334 + x335 + x336 + x337 >= 0
 c326: - x296 + x332 + x334 + x335 + x336 + x337 >= 0
 c327: - x297 + x332 + x334 + x335 + x336 + x337 >= 0
 c328: - x298 + x332 + x334 + x335 + x336 + x337 >= 0
 c329: - x299 + x332 + x334 + x335 + x336 + x337 >= 0
 c330: - x300 + x332 + x334 + x335 + x336 + x337 >= 0
 c331: - x301 + x332 + x334 + x335 + x336 + x337 >= 0
 c332: - x302 + x332 + x337 >= 0
 c333: - x303 + x332 + x337 >= 0
 c334: - x304 + x332 + x337 >= 0
 c335: - x305 + x332 + x337 >= 0
 c336: - x306 + x332 + x337 >= 0
 c337: - x307 + x332 + x337 >= 0
 c338: - x308 + x332 + x337 >= 0
 c339: - x309 + x332 + x337 >= 0
 c340: - x310 + x332 + x337 >= 0
 c341: - x311 + x332 + x337 >= 0
 c342: - x312 + x332 + x337 >= 0
 c343: - x313 + x332 + x337 >= 0
 c344: - x314 + x332 + x337 >= 0
 c345: - x315 + x332 + x337 >= 0
 c346: - x316 + x332 + x337 >= 0
 c347: - x317 + x332 + x337 >= 0
 c348: - x318 + x332 + x337 >= 0
 c349: - x319 + x332 + x337 >= 0
 c350: - x320 + x332 + x337 >= 0
 c351: - x321 + x332 + x337 >= 0
 c352: - x322 + x332 + x337 >= 0
 c353: - x323 + x332 + x337 >= 0
 c354: - x324 + x332 + x337 >= 0
 c355: - x325 + x332 + x337 >= 0
 c356: - x326 + x332 + x337 >= 0
 c357: - x327 + x332 + x337 >= 0
 c358: - x328 + x332 + x337 >= 0
 c359: - x329 + x332 + x337 >= 0
 c360: - x330 + x332 + x337 >= 0
 c361: - x331 + x332 + x337 >= 0
Bounds
      x1 = 0
End
